# Objective value = 28
WA1n 0
WA1p 0
WA2n 1
WA2p 0
WB1n 0
WB1p 0
WB2n 0
WB2p 1
WC1n 1
WC1p 0
WD1n 1
WD1p 0
WD2n 1
WD2p 0
WE1n 1
WE1p 0
WE2n 1
WE2p 0
WF1n 4
WF1p 0
WG1n 4
WG1p 0
WH1n 4
WH1p 0
WI1n 0
WI1p 4
WT1n 0
WT1p 1
5 7
a 0
b 0
c 0
d 1
e 0
f 0
g 0
h 0
i 0
j 0
k 0
l 0
m 1
n 1
